NAME : ft70.tour
COMMENT : Optimum tour for ft70.tsp (Length 38673)
TYPE : TOUR
DIMENSION : 70
TOUR_SECTION  
0
0
0
0
0
0
0
0
0
0
0
0
0
0
0
0
0
0
0
0
0
0
0
0
0
0
0
0
0
0
0
0
0
0
0
0
0
0
0
0
0
0
0
0
0
0
0
0
0
0
0
0
0
0
0
0
0
0
0
0
0
0
0
0
0
0
0
0
0
0
-1
EOF
